c File: flat75_3_0.col
c
c SOURCE: Joseph Culberson (joe@cs.ualberta.ca)
c DESCRIPTION: Quasi-random coloring problem
c              generated with flatness = 0
c                             probability = 0.096
c                             known coloring = 3
c                             random seed = 1009
c              Creation Date:  Wed Feb 24 10:41:48 1999
c Maximum degree = 8 Minimum degree = 1
c COLOR VERIFICATION: Using the permuted order
c under simple greedy yields the specified
c coloring number
c Color = 3 specified partitions = 3
c p edge 75 180
c cnf created by edge2cnf
p cnf 225 840
-1 -2 0
-1 -3 0
-2 -3 0
1 2 3 0
-4 -5 0
-4 -6 0
-5 -6 0
4 5 6 0
-7 -8 0
-7 -9 0
-8 -9 0
7 8 9 0
-10 -11 0
-10 -12 0
-11 -12 0
10 11 12 0
-13 -14 0
-13 -15 0
-14 -15 0
13 14 15 0
-16 -17 0
-16 -18 0
-17 -18 0
16 17 18 0
-19 -20 0
-19 -21 0
-20 -21 0
19 20 21 0
-22 -23 0
-22 -24 0
-23 -24 0
22 23 24 0
-25 -26 0
-25 -27 0
-26 -27 0
25 26 27 0
-28 -29 0
-28 -30 0
-29 -30 0
28 29 30 0
-31 -32 0
-31 -33 0
-32 -33 0
31 32 33 0
-34 -35 0
-34 -36 0
-35 -36 0
34 35 36 0
-37 -38 0
-37 -39 0
-38 -39 0
37 38 39 0
-40 -41 0
-40 -42 0
-41 -42 0
40 41 42 0
-43 -44 0
-43 -45 0
-44 -45 0
43 44 45 0
-46 -47 0
-46 -48 0
-47 -48 0
46 47 48 0
-49 -50 0
-49 -51 0
-50 -51 0
49 50 51 0
-52 -53 0
-52 -54 0
-53 -54 0
52 53 54 0
-55 -56 0
-55 -57 0
-56 -57 0
55 56 57 0
-58 -59 0
-58 -60 0
-59 -60 0
58 59 60 0
-61 -62 0
-61 -63 0
-62 -63 0
61 62 63 0
-64 -65 0
-64 -66 0
-65 -66 0
64 65 66 0
-67 -68 0
-67 -69 0
-68 -69 0
67 68 69 0
-70 -71 0
-70 -72 0
-71 -72 0
70 71 72 0
-73 -74 0
-73 -75 0
-74 -75 0
73 74 75 0
-76 -77 0
-76 -78 0
-77 -78 0
76 77 78 0
-79 -80 0
-79 -81 0
-80 -81 0
79 80 81 0
-82 -83 0
-82 -84 0
-83 -84 0
82 83 84 0
-85 -86 0
-85 -87 0
-86 -87 0
85 86 87 0
-88 -89 0
-88 -90 0
-89 -90 0
88 89 90 0
-91 -92 0
-91 -93 0
-92 -93 0
91 92 93 0
-94 -95 0
-94 -96 0
-95 -96 0
94 95 96 0
-97 -98 0
-97 -99 0
-98 -99 0
97 98 99 0
-100 -101 0
-100 -102 0
-101 -102 0
100 101 102 0
-103 -104 0
-103 -105 0
-104 -105 0
103 104 105 0
-106 -107 0
-106 -108 0
-107 -108 0
106 107 108 0
-109 -110 0
-109 -111 0
-110 -111 0
109 110 111 0
-112 -113 0
-112 -114 0
-113 -114 0
112 113 114 0
-115 -116 0
-115 -117 0
-116 -117 0
115 116 117 0
-118 -119 0
-118 -120 0
-119 -120 0
118 119 120 0
-121 -122 0
-121 -123 0
-122 -123 0
121 122 123 0
-124 -125 0
-124 -126 0
-125 -126 0
124 125 126 0
-127 -128 0
-127 -129 0
-128 -129 0
127 128 129 0
-130 -131 0
-130 -132 0
-131 -132 0
130 131 132 0
-133 -134 0
-133 -135 0
-134 -135 0
133 134 135 0
-136 -137 0
-136 -138 0
-137 -138 0
136 137 138 0
-139 -140 0
-139 -141 0
-140 -141 0
139 140 141 0
-142 -143 0
-142 -144 0
-143 -144 0
142 143 144 0
-145 -146 0
-145 -147 0
-146 -147 0
145 146 147 0
-148 -149 0
-148 -150 0
-149 -150 0
148 149 150 0
-151 -152 0
-151 -153 0
-152 -153 0
151 152 153 0
-154 -155 0
-154 -156 0
-155 -156 0
154 155 156 0
-157 -158 0
-157 -159 0
-158 -159 0
157 158 159 0
-160 -161 0
-160 -162 0
-161 -162 0
160 161 162 0
-163 -164 0
-163 -165 0
-164 -165 0
163 164 165 0
-166 -167 0
-166 -168 0
-167 -168 0
166 167 168 0
-169 -170 0
-169 -171 0
-170 -171 0
169 170 171 0
-172 -173 0
-172 -174 0
-173 -174 0
172 173 174 0
-175 -176 0
-175 -177 0
-176 -177 0
175 176 177 0
-178 -179 0
-178 -180 0
-179 -180 0
178 179 180 0
-181 -182 0
-181 -183 0
-182 -183 0
181 182 183 0
-184 -185 0
-184 -186 0
-185 -186 0
184 185 186 0
-187 -188 0
-187 -189 0
-188 -189 0
187 188 189 0
-190 -191 0
-190 -192 0
-191 -192 0
190 191 192 0
-193 -194 0
-193 -195 0
-194 -195 0
193 194 195 0
-196 -197 0
-196 -198 0
-197 -198 0
196 197 198 0
-199 -200 0
-199 -201 0
-200 -201 0
199 200 201 0
-202 -203 0
-202 -204 0
-203 -204 0
202 203 204 0
-205 -206 0
-205 -207 0
-206 -207 0
205 206 207 0
-208 -209 0
-208 -210 0
-209 -210 0
208 209 210 0
-211 -212 0
-211 -213 0
-212 -213 0
211 212 213 0
-214 -215 0
-214 -216 0
-215 -216 0
214 215 216 0
-217 -218 0
-217 -219 0
-218 -219 0
217 218 219 0
-220 -221 0
-220 -222 0
-221 -222 0
220 221 222 0
-223 -224 0
-223 -225 0
-224 -225 0
223 224 225 0
-16 -1 0
-17 -2 0
-18 -3 0
-22 -1 0
-23 -2 0
-24 -3 0
-40 -1 0
-41 -2 0
-42 -3 0
-139 -1 0
-140 -2 0
-141 -3 0
-166 -1 0
-167 -2 0
-168 -3 0
-196 -1 0
-197 -2 0
-198 -3 0
-217 -1 0
-218 -2 0
-219 -3 0
-34 -4 0
-35 -5 0
-36 -6 0
-43 -4 0
-44 -5 0
-45 -6 0
-103 -4 0
-104 -5 0
-105 -6 0
-106 -4 0
-107 -5 0
-108 -6 0
-199 -4 0
-200 -5 0
-201 -6 0
-208 -4 0
-209 -5 0
-210 -6 0
-91 -7 0
-92 -8 0
-93 -9 0
-112 -7 0
-113 -8 0
-114 -9 0
-43 -10 0
-44 -11 0
-45 -12 0
-157 -10 0
-158 -11 0
-159 -12 0
-175 -10 0
-176 -11 0
-177 -12 0
-220 -10 0
-221 -11 0
-222 -12 0
-79 -13 0
-80 -14 0
-81 -15 0
-193 -13 0
-194 -14 0
-195 -15 0
-64 -16 0
-65 -17 0
-66 -18 0
-118 -16 0
-119 -17 0
-120 -18 0
-130 -16 0
-131 -17 0
-132 -18 0
-169 -16 0
-170 -17 0
-171 -18 0
-37 -19 0
-38 -20 0
-39 -21 0
-58 -19 0
-59 -20 0
-60 -21 0
-97 -19 0
-98 -20 0
-99 -21 0
-112 -19 0
-113 -20 0
-114 -21 0
-220 -19 0
-221 -20 0
-222 -21 0
-208 -22 0
-209 -23 0
-210 -24 0
-28 -25 0
-29 -26 0
-30 -27 0
-106 -25 0
-107 -26 0
-108 -27 0
-130 -25 0
-131 -26 0
-132 -27 0
-166 -25 0
-167 -26 0
-168 -27 0
-187 -25 0
-188 -26 0
-189 -27 0
-199 -25 0
-200 -26 0
-201 -27 0
-208 -25 0
-209 -26 0
-210 -27 0
-91 -28 0
-92 -29 0
-93 -30 0
-109 -28 0
-110 -29 0
-111 -30 0
-214 -28 0
-215 -29 0
-216 -30 0
-217 -28 0
-218 -29 0
-219 -30 0
-52 -31 0
-53 -32 0
-54 -33 0
-79 -34 0
-80 -35 0
-81 -36 0
-94 -34 0
-95 -35 0
-96 -36 0
-103 -34 0
-104 -35 0
-105 -36 0
-46 -37 0
-47 -38 0
-48 -39 0
-136 -37 0
-137 -38 0
-138 -39 0
-70 -40 0
-71 -41 0
-72 -42 0
-151 -40 0
-152 -41 0
-153 -42 0
-166 -40 0
-167 -41 0
-168 -42 0
-196 -40 0
-197 -41 0
-198 -42 0
-85 -43 0
-86 -44 0
-87 -45 0
-88 -43 0
-89 -44 0
-90 -45 0
-91 -43 0
-92 -44 0
-93 -45 0
-169 -43 0
-170 -44 0
-171 -45 0
-67 -46 0
-68 -47 0
-69 -48 0
-88 -46 0
-89 -47 0
-90 -48 0
-106 -46 0
-107 -47 0
-108 -48 0
-142 -46 0
-143 -47 0
-144 -48 0
-160 -46 0
-161 -47 0
-162 -48 0
-67 -49 0
-68 -50 0
-69 -51 0
-70 -49 0
-71 -50 0
-72 -51 0
-79 -49 0
-80 -50 0
-81 -51 0
-163 -49 0
-164 -50 0
-165 -51 0
-214 -49 0
-215 -50 0
-216 -51 0
-142 -52 0
-143 -53 0
-144 -54 0
-148 -52 0
-149 -53 0
-150 -54 0
-163 -52 0
-164 -53 0
-165 -54 0
-82 -55 0
-83 -56 0
-84 -57 0
-94 -55 0
-95 -56 0
-96 -57 0
-100 -55 0
-101 -56 0
-102 -57 0
-106 -55 0
-107 -56 0
-108 -57 0
-127 -55 0
-128 -56 0
-129 -57 0
-163 -55 0
-164 -56 0
-165 -57 0
-124 -58 0
-125 -59 0
-126 -60 0
-175 -58 0
-176 -59 0
-177 -60 0
-202 -58 0
-203 -59 0
-204 -60 0
-220 -58 0
-221 -59 0
-222 -60 0
-91 -61 0
-92 -62 0
-93 -63 0
-109 -61 0
-110 -62 0
-111 -63 0
-160 -64 0
-161 -65 0
-162 -66 0
-166 -64 0
-167 -65 0
-168 -66 0
-184 -64 0
-185 -65 0
-186 -66 0
-196 -64 0
-197 -65 0
-198 -66 0
-82 -67 0
-83 -68 0
-84 -69 0
-94 -67 0
-95 -68 0
-96 -69 0
-160 -67 0
-161 -68 0
-162 -69 0
-97 -70 0
-98 -71 0
-99 -72 0
-121 -70 0
-122 -71 0
-123 -72 0
-133 -70 0
-134 -71 0
-135 -72 0
-136 -70 0
-137 -71 0
-138 -72 0
-196 -70 0
-197 -71 0
-198 -72 0
-202 -70 0
-203 -71 0
-204 -72 0
-121 -73 0
-122 -74 0
-123 -75 0
-130 -73 0
-131 -74 0
-132 -75 0
-154 -73 0
-155 -74 0
-156 -75 0
-145 -76 0
-146 -77 0
-147 -78 0
-172 -76 0
-173 -77 0
-174 -78 0
-184 -76 0
-185 -77 0
-186 -78 0
-190 -79 0
-191 -80 0
-192 -81 0
-223 -85 0
-224 -86 0
-225 -87 0
-109 -88 0
-110 -89 0
-111 -90 0
-115 -88 0
-116 -89 0
-117 -90 0
-148 -88 0
-149 -89 0
-150 -90 0
-178 -88 0
-179 -89 0
-180 -90 0
-217 -88 0
-218 -89 0
-219 -90 0
-220 -88 0
-221 -89 0
-222 -90 0
-100 -91 0
-101 -92 0
-102 -93 0
-175 -91 0
-176 -92 0
-177 -93 0
-199 -91 0
-200 -92 0
-201 -93 0
-181 -94 0
-182 -95 0
-183 -96 0
-214 -94 0
-215 -95 0
-216 -96 0
-112 -97 0
-113 -98 0
-114 -99 0
-172 -100 0
-173 -101 0
-174 -102 0
-136 -103 0
-137 -104 0
-138 -105 0
-145 -103 0
-146 -104 0
-147 -105 0
-199 -103 0
-200 -104 0
-201 -105 0
-205 -103 0
-206 -104 0
-207 -105 0
-124 -106 0
-125 -107 0
-126 -108 0
-220 -106 0
-221 -107 0
-222 -108 0
-181 -109 0
-182 -110 0
-183 -111 0
-193 -109 0
-194 -110 0
-195 -111 0
-199 -109 0
-200 -110 0
-201 -111 0
-214 -112 0
-215 -113 0
-216 -114 0
-157 -115 0
-158 -116 0
-159 -117 0
-160 -115 0
-161 -116 0
-162 -117 0
-181 -115 0
-182 -116 0
-183 -117 0
-181 -118 0
-182 -119 0
-183 -120 0
-157 -121 0
-158 -122 0
-159 -123 0
-172 -121 0
-173 -122 0
-174 -123 0
-175 -121 0
-176 -122 0
-177 -123 0
-190 -121 0
-191 -122 0
-192 -123 0
-127 -124 0
-128 -125 0
-129 -126 0
-151 -124 0
-152 -125 0
-153 -126 0
-199 -124 0
-200 -125 0
-201 -126 0
-223 -124 0
-224 -125 0
-225 -126 0
-136 -127 0
-137 -128 0
-138 -129 0
-139 -127 0
-140 -128 0
-141 -129 0
-187 -127 0
-188 -128 0
-189 -129 0
-202 -127 0
-203 -128 0
-204 -129 0
-142 -130 0
-143 -131 0
-144 -132 0
-160 -130 0
-161 -131 0
-162 -132 0
-181 -130 0
-182 -131 0
-183 -132 0
-157 -133 0
-158 -134 0
-159 -135 0
-154 -136 0
-155 -137 0
-156 -138 0
-172 -136 0
-173 -137 0
-174 -138 0
-184 -136 0
-185 -137 0
-186 -138 0
-190 -139 0
-191 -140 0
-192 -141 0
-163 -142 0
-164 -143 0
-165 -144 0
-166 -145 0
-167 -146 0
-168 -147 0
-154 -151 0
-155 -152 0
-156 -153 0
-217 -151 0
-218 -152 0
-219 -153 0
-205 -154 0
-206 -155 0
-207 -156 0
-223 -154 0
-224 -155 0
-225 -156 0
-163 -157 0
-164 -158 0
-165 -159 0
-166 -157 0
-167 -158 0
-168 -159 0
-178 -157 0
-179 -158 0
-180 -159 0
-223 -157 0
-224 -158 0
-225 -159 0
-169 -160 0
-170 -161 0
-171 -162 0
-172 -160 0
-173 -161 0
-174 -162 0
-193 -160 0
-194 -161 0
-195 -162 0
-193 -163 0
-194 -164 0
-195 -165 0
-181 -166 0
-182 -167 0
-183 -168 0
-202 -166 0
-203 -167 0
-204 -168 0
-196 -175 0
-197 -176 0
-198 -177 0
-223 -175 0
-224 -176 0
-225 -177 0
-208 -181 0
-209 -182 0
-210 -183 0
-223 -181 0
-224 -182 0
-225 -183 0
-202 -184 0
-203 -185 0
-204 -186 0
-223 -187 0
-224 -188 0
-225 -189 0
-220 -190 0
-221 -191 0
-222 -192 0
-211 -193 0
-212 -194 0
-213 -195 0
-202 -196 0
-203 -197 0
-204 -198 0
-205 -196 0
-206 -197 0
-207 -198 0
-211 -196 0
-212 -197 0
-213 -198 0
-220 -199 0
-221 -200 0
-222 -201 0
-217 -202 0
-218 -203 0
-219 -204 0
-208 -205 0
-209 -206 0
-210 -207 0
-223 -214 0
-224 -215 0
-225 -216 0
